CMD:
./solvers/bin/cadical --plain --no-reduce -t 1600 ./data/cnfs//6s41/6s41.69.cnf

c --- [ banner ] -------------------------------------------------------------
c 
c CaDiCaL SAT Solver
c Copyright (c) 2016-2024
c A. Biere, M. Fleury, N. Froleyks, K. Fazekas, F. Pollitt, T. Faller
c JKU Linz, University of Freiburg, TU Wien
c 
c Version 2.1.3 5296d3d2a9bf48c154ab2acb5e44625776d821bf
c g++ (Gentoo 12.3.1_p20230526 p2) 12.3.1 20230526 -Wall -Wextra -O3 -DNDEBUG
c Sat Aug 9 07:26:21 PDT 2025 Linux cedar2.int.cedar.computecanada.ca 5.14.0-362.24.2.el9_3.x86_64 x86_64
c 
c --- [ limit ] --------------------------------------------------------------
c 
c setting time limit to 1600 seconds real time (due to '-t 1600')
c 
c --- [ parsing input ] ------------------------------------------------------
c 
c reading DIMACS file from './data/cnfs//6s41/6s41.69.cnf'
c opening file to read './data/cnfs//6s41/6s41.69.cnf'
c found 'p cnf 231609 688709' header
c parsed 688709 clauses in 0.13 seconds process time
c 
c --- [ options ] ------------------------------------------------------------
c 
c   --compact=false                (different from default 'true')
c   --decompose=false              (different from default 'true')
c   --deduplicate=false            (different from default 'true')
c   --elim=false                   (different from default 'true')
c   --probe=false                  (different from default 'true')
c   --reduce=false                 (different from default 'true')
c   --subsume=false                (different from default 'true')
c   --ternary=false                (different from default 'true')
c   --transred=false               (different from default 'true')
c   --vivify=false                 (different from default 'true')
c 
c --- [ solving ] ------------------------------------------------------------
c 
c time measured in process time since initialization
c 
c  seconds  reductions  redundant  irredundant
c         MB    restarts       trail       variables
c          level   conflicts       glue          remaining
c 
c *  0.13 93  0 0   0    0    0  0% 0 521393 152123 66%
c {  0.19 95  0 0   0    0    0  0% 0 521393 152123 66%
c i  0.21 95 24 0   4   56   54 37% 1 521393 151580 65%
c i  0.21 95 24 0   5   57   54 37% 1 521393 151572 65%
c i  0.21 95 23 0   5   62   57 37% 1 521393 151537 65%
c i  0.21 95 23 0   6   63   57 37% 1 521393 151532 65%
c i  0.21 95 22 0   6   64   57 37% 1 521393 151527 65%
c i  0.25 95 31 0  22  120  104 39% 2 521393 151505 65%
c i  0.25 95 29 0  27  139  119 39% 2 521393 151402 65%
c i  0.26 95 27 0  35  170  149 39% 2 521393 151236 65%
c i  0.26 95 25 0  42  201  176 38% 2 521393 151010 65%
c i  0.26 95 26 0  47  219  193 38% 2 521393 150854 65%
c i  0.30 95 29 0  79  351  314 39% 3 521393 150764 65%
c i  0.31 95 28 0  85  373  335 39% 3 521393 150759 65%
c i  0.31 95 28 0  87  380  340 39% 3 521393 150588 65%
c i  0.32 95 28 0  90  428  380 39% 3 521393 150483 65%
c i  0.36 95 30 0  94  585  523 40% 3 521393 150355 65%
c i  0.37 95 30 0  99  600  536 40% 3 521393 150348 65%
c i  0.38 95 30 0 102  610  545 40% 3 521393 150347 65%
c i  0.38 95 30 0 102  615  549 40% 3 521393 150254 65%
c 
c  seconds  reductions  redundant  irredundant
c         MB    restarts       trail       variables
c          level   conflicts       glue          remaining
c 
c i  0.38 95 30 0 102  619  552 40% 3 521393 150250 65%
c i  0.38 95 30 0 102  627  559 40% 3 521393 150180 65%
c i  0.38 95 29 0 102  628  559 40% 3 521393 150137 65%
c i  0.38 95 29 0 102  629  559 40% 3 521393 150047 65%
c i  0.38 95 29 0 102  637  565 40% 3 521393 149967 65%
c i  0.45 96 32 0 128  804  706 41% 3 521393 149937 65%
c i  0.46 96 33 0 134  825  725 41% 3 521393 149734 65%
c i  0.49 96 32 0 139  887  777 41% 3 521393 149686 65%
c i  0.50 96 31 0 147  933  815 42% 3 521393 149682 65%
c i  0.50 96 31 0 147  934  815 42% 3 521393 149678 65%
c i  0.54 96 32 0 162 1003  872 41% 3 521393 149677 65%
c }  0.54 96 32 0 162 1003  872 41% 3 521393 149677 65%
c [  0.54 96  0 0 162 1003  872  0% 0 521393 149677 65%
c O  0.57 96 767 0 162 1004  873 88% 8 521393 149677 65%
c i  1.14 97 467 0 163 2776 2534 64% 24 521393 149675 65%
c ]  1.20 97 427 0 163 3004 2746 62% 25 521393 149675 65%
c {  1.20 97 32 0 163 3004 2746 41% 3 521393 149675 65%
c F  1.20 97 32 0 164 3005 2747 41% 3 521393 149675 65%
c i  1.21 97 31 0 167 3016 2757 41% 3 521393 149674 65%
c i  1.28 97 38 0 180 3286 3000 42% 3 521393 149673 65%
c 
c  seconds  reductions  redundant  irredundant
c         MB    restarts       trail       variables
c          level   conflicts       glue          remaining
c 
c i  1.30 97 37 0 182 3341 3041 43% 3 521393 149672 65%
c i  1.30 97 37 0 182 3372 3068 42% 3 521393 149670 65%
c i  1.30 97 37 0 182 3377 3072 42% 3 521393 149669 65%
c i  1.37 97 41 0 193 3770 3438 43% 3 521393 149666 65%
... skipped 319 lines ...
c           level     conflicts        glue          remaining
c 
c i 12.44 104 31 0 2752 30966 26635 45% 4 390896 142858 62%
c } 12.45 104 31 0 2755 31010 26674 45% 4 390896 142858 62%
c [ 12.45 104 126 0 2755 31010 26674 51% 13 390896 142858 62%
c i 12.54 104 124 0 2755 31233 26882 50% 13 390896 142857 62%
c i 12.82 104 119 0 2755 31856 27450 50% 13 390896 142856 62%
c i 12.93 104 117 0 2755 32181 27746 50% 13 390896 142855 62%
c i 13.76 104 105 0 2756 33959 29414 49% 12 390896 142804 62%
c i 14.69 104 94 0 2758 35844 31001 49% 12 390896 142801 62%
c B 14.76 104 93 0 2758 36013 31152 49% 12 390896 142801 62%
c i 14.85 104 92 0 2758 36233 31358 49% 12 390896 142800 62%
c i 14.87 104 92 0 2758 36283 31404 49% 12 390896 142789 62%
c i 15.10 104 90 0 2758 36896 31974 49% 12 390896 142786 62%
c i 15.18 104 90 0 2758 37013 32084 49% 12 390896 142745 62%
c i 15.27 104 89 0 2758 37338 32392 49% 12 390896 142744 62%
c i 16.39 104 80 0 2761 40015 34771 48% 11 390896 142743 62%
c i 16.71 104 77 0 2761 40880 35580 48% 11 390896 142742 62%
c i 17.55 104 74 0 2762 42211 36789 49% 12 390896 142741 62%
c i 17.59 104 74 0 2762 42329 36899 49% 12 390896 142740 62%
c i 17.81 104 73 0 2762 42873 37396 49% 12 390896 142739 62%
c i 17.82 104 73 0 2762 42950 37462 49% 12 390896 142738 62%
c 
c  seconds   reductions     redundant   irredundant
c          MB    restarts          trail        variables
c           level     conflicts        glue           remaining
c 
c i 18.08 104 72 0 2762 43509 37964 49% 11 390896 142737 62%
c W 18.93 120 68 0 2762 45014 37332 48% 11 380896 142737 62%
c i 20.02 120 62 0 2763 48109 39984 48% 11 380896 142736 62%
c i 21.15 120 61 0 2763 50157 41915 49% 11 380896 142735 62%
c i 21.30 120 60 0 2763 50459 42168 49% 11 380896 142734 62%
c i 22.13 120 59 0 2763 51818 43439 49% 11 380896 142733 62%
c i 23.10 120 57 0 2763 53717 45079 49% 12 380896 142732 62%
c O 23.74 120 55 0 2764 55019 46120 49% 12 380896 142732 62%
c i 23.98 120 54 0 2764 55709 46637 49% 11 380896 142708 62%
c i 25.79 120 50 0 2767 59462 49729 48% 11 380896 142589 62%
c i 25.95 120 50 0 2767 59827 50063 48% 11 380896 142588 62%
c i 25.99 120 50 0 2768 59926 50116 48% 11 380896 142398 61%
c i 26.02 120 50 0 2768 60015 50164 48% 11 380896 141965 61%
c i 26.02 120 50 0 2768 60018 50166 48% 11 380896 141805 61%
c i 26.03 120 50 0 2768 60021 50167 48% 11 380896 119999 52%
c i 26.03 120 50 0 2768 60025 50170 48% 11 380896 119997 52%
c i 26.03 120 50 0 2768 60026 50170 48% 11 380896 119953 52%
c ] 26.03 120 50 0 2768 60030 50171 48% 11 380896 119271 51%
c 0 26.03 120 50 0 2768 60030 50171 48% 11 380896 119271 51%
c 
c --- [ result ] -------------------------------------------------------------
c 
s UNSATISFIABLE
c 
c --- [ run-time profiling ] -------------------------------------------------
c 
c process time taken by individual solving procedures
c (percentage relative to process time for solving)
c 
c        25.90  100.00% search
c        16.34   63.09% stable
c         9.07   35.02% unstable
c         0.43    1.67% walk
c         0.13    0.51% parse
c         0.06    0.21% lucky
c         0.00    0.00% simplify
c   =================================
c        25.90   99.49% solve
c 
c last line shows process time for solving
c (percentage relative to total process time)
c 
c --- [ statistics ] ---------------------------------------------------------
c 
c chronological:             24355        40.57 %  of conflicts
c conflicts:                 60030      2317.88    per second
c decisions:                194153      7496.63    per second
c fixed:                    112338        48.50 %  of all variables
c learned:                   57767        96.23 %  per conflict
c learned_lits:            2557106       100.00 %  learned literals
c minimized:                     0         0.00 %  learned literals
c shrunken:                 533958        20.88 %  learned literals
c minishrunken:             499324        19.53 %  learned literals
c otfs:                        363         0.60 %  of conflict
c propagations:          221123684         8.54 M  per second
c rephased:                     10      6003.00    interval
c restarts:                   2768        21.69    interval
c stabilizing:                   3        65.00 %  of conflicts
c subsumed:                   3865         0.67 %  of all clauses
c strengthened:                359         0.06 %  of all clauses
c walked:                        2     30015.00    interval
c 
c seconds are measured in process time for solving
c 
c --- [ resources ] ----------------------------------------------------------
c 
c total process time since initialization:        26.03    seconds
c total real time since initialization:           26.18    seconds
c maximum resident set size of process:          117.93    MB
c 
c --- [ shutting down ] ------------------------------------------------------
c 
c exit 20
